benchmarks_vrp/CMT11/fixed_c/CMT11_5.vrp
NAME: CMT11_5
TYPE: CVRP
COMMENT: 1042.11 - Cluster Nr.5
DIMENSION: 16
CAPACITY: 200
EDGE_WEIGHT_TYPE: EUC_2D
NODE_COORD_TYPE: TWOD_COORDS
NODE_COORD_SECTION: 
13 85 81
2 90 77
5 95 80
9 87 86
1 90 88
11 99 89
12 87 80
15 85 89
16 83 83
7 85 85
4 93 84
14 94 86
6 83 80
8 93 82
3 10 45
10 93 89
DEPOT_SECTION: 
3
-1
DEMAND_SECTION: 
5 17
7 14
2 19
11 13
9 16
13 12
6 13
1 5
8 17
10 16
14 14
12 8
4 7
15 10
16 11
3 0
EOF
