benchmarks_vrp/CMT11/fixed_c/CMT11_5.tour
NAME: CMT11_5 solution
TYPE: TOUR
TOUR_SECTION:
3 6 13 12 2 5 8 4 14 11 10 1 15 9 7 16 -1
-1
EOF